nK = 425;
nT = 4;
nI = 7;
L = 35;
TT = 134;
np = 1;
nc = 3;
b = [62, 28, 32, 41, 49, 70, 22];
d = [100, 84, 63, 123, 138, 142, 34];
m = [2, 2.2, 1.8, 2, 1.8, 1.3, 2];
pt = [0.28, 0.29, 0.35, 0.28];
st = [15.12, 11.89, 18.9, 15.4];
arc = {<1, 0, 1, 1, 0, 0, 0, [1, 1, 1, 1]>, <2, 1, 2, 1, 0, 0, 0, [1, 1, 1, 1]>, <3, 2, 3, 1, 0, 0, 0, [1, 1, 1, 1]>, <4, 3, 4, 1, 0, 0, 0, [1, 1, 1, 1]>, <5, 4, 5, 1, 0, 0, 0, [1, 1, 1, 1]>, <6, 5, 6, 1, 0, 0, 0, [1, 1, 1, 1]>, <7, 6, 7, 1, 0, 0, 0, [1, 1, 1, 1]>, <8, 7, 8, 1, 0, 0, 0, [1, 1, 1, 1]>, <9, 8, 9, 1, 0, 0, 0, [1, 1, 1, 1]>, <10, 9, 10, 1, 0, 0, 0, [1, 1, 1, 1]>, <11, 10, 11, 1, 0, 0, 0, [1, 1, 1, 1]>, <12, 11, 12, 1, 0, 0, 0, [1, 1, 1, 1]>, <13, 12, 13, 1, 0, 0, 0, [1, 1, 1, 1]>, <14, 13, 14, 1, 0, 0, 0, [1, 1, 1, 1]>, <15, 14, 15, 1, 0, 0, 0, [1, 1, 1, 1]>, <16, 15, 16, 1, 0, 0, 0, [1, 1, 1, 1]>, <17, 16, 17, 1, 0, 0, 0, [1, 1, 1, 1]>, <18, 17, 18, 1, 0, 0, 0, [1, 1, 1, 1]>, <19, 18, 19, 1, 0, 0, 0, [1, 1, 1, 1]>, <20, 19, 20, 1, 0, 0, 0, [1, 1, 1, 1]>, <21, 20, 21, 1, 0, 0, 0, [1, 1, 1, 1]>, <22, 21, 22, 1, 0, 0, 0, [1, 1, 1, 1]>, <23, 22, 23, 1, 0, 0, 0, [1, 1, 1, 1]>, <24, 23, 24, 1, 0, 0, 0, [1, 1, 1, 1]>, <25, 24, 25, 1, 0, 0, 0, [1, 1, 1, 1]>, <26, 25, 26, 1, 0, 0, 0, [1, 1, 1, 1]>, <27, 26, 27, 1, 0, 0, 0, [1, 1, 1, 1]>, <28, 27, 28, 1, 0, 0, 0, [1, 1, 1, 1]>, <29, 28, 29, 1, 0, 0, 0, [1, 1, 1, 1]>, <30, 29, 30, 1, 0, 0, 0, [1, 1, 1, 1]>, <31, 30, 31, 1, 0, 0, 0, [1, 1, 1, 1]>, <32, 31, 32, 1, 0, 0, 0, [1, 1, 1, 1]>, <33, 32, 33, 1, 0, 0, 0, [1, 1, 1, 1]>, <34, 33, 34, 1, 0, 0, 0, [1, 1, 1, 1]>, <35, 34, 35, 1, 0, 0, 0, [1, 1, 1, 1]>, <36, 5, 16, 11, 1, 0, 0, [1, 1, 1, 0]>, <37, 6, 17, 11, 1, 0, 0, [1, 1, 1, 0]>, <38, 14, 25, 11, 1, 0, 0, [1, 1, 1, 0]>, <39, 15, 26, 11, 1, 0, 0, [1, 1, 1, 0]>, <40, 20, 31, 11, 1, 0, 0, [1, 1, 1, 0]>, <41, 21, 32, 11, 1, 0, 0, [1, 1, 1, 0]>, <42, 22, 33, 11, 1, 0, 0, [1, 1, 1, 0]>, <43, 23, 34, 11, 1, 0, 0, [1, 1, 1, 0]>, <44, 24, 35, 11, 1, 0, 0, [1, 1, 1, 0]>, <45, 5, 14, 9, 2, 1, 0, [1, 0, 1, 1]>, <46, 6, 15, 9, 2, 1, 0, [1, 0, 1, 1]>, <47, 14, 23, 9, 2, 1, 0, [1, 0, 1, 1]>, <48, 15, 24, 9, 2, 1, 0, [1, 0, 1, 1]>, <49, 22, 31, 9, 2, 1, 0, [1, 0, 1, 1]>, <50, 23, 32, 9, 2, 1, 0, [1, 0, 1, 1]>, <51, 24, 33, 9, 2, 1, 0, [1, 0, 1, 1]>, <52, 5, 16, 11, 3, 0, 0, [1, 1, 1, 0]>, <53, 6, 17, 11, 3, 0, 0, [1, 1, 1, 0]>, <54, 14, 25, 11, 3, 0, 0, [1, 1, 1, 0]>, <55, 15, 26, 11, 3, 0, 0, [1, 1, 1, 0]>, <56, 20, 31, 11, 3, 0, 0, [1, 1, 1, 0]>, <57, 21, 32, 11, 3, 0, 0, [1, 1, 1, 0]>, <58, 22, 33, 11, 3, 0, 0, [1, 1, 1, 0]>, <59, 23, 34, 11, 3, 0, 0, [1, 1, 1, 0]>, <60, 24, 35, 11, 3, 0, 0, [1, 1, 1, 0]>, <61, 4, 17, 13, 4, 0, 0, [0, 1, 1, 1]>, <62, 5, 18, 13, 4, 0, 0, [0, 1, 1, 1]>, <63, 6, 19, 13, 4, 0, 0, [0, 1, 1, 1]>, <64, 13, 26, 13, 4, 0, 0, [0, 1, 1, 1]>, <65, 14, 27, 13, 4, 0, 0, [0, 1, 1, 1]>, <66, 15, 28, 13, 4, 0, 0, [0, 1, 1, 1]>, <67, 18, 31, 13, 4, 0, 0, [0, 1, 1, 1]>, <68, 19, 32, 13, 4, 0, 0, [0, 1, 1, 1]>, <69, 20, 33, 13, 4, 0, 0, [0, 1, 1, 1]>, <70, 21, 34, 13, 4, 0, 0, [0, 1, 1, 1]>, <71, 22, 35, 13, 4, 0, 0, [0, 1, 1, 1]>, <72, 3, 17, 14, 5, 0, 0, [1, 1, 0, 1]>, <73, 4, 18, 14, 5, 0, 0, [1, 1, 0, 1]>, <74, 5, 19, 14, 5, 0, 0, [1, 1, 0, 1]>, <75, 6, 20, 14, 5, 0, 0, [1, 1, 0, 1]>, <76, 12, 26, 14, 5, 0, 0, [1, 1, 0, 1]>, <77, 13, 27, 14, 5, 0, 0, [1, 1, 0, 1]>, <78, 14, 28, 14, 5, 0, 0, [1, 1, 0, 1]>, <79, 15, 29, 14, 5, 0, 0, [1, 1, 0, 1]>, <80, 17, 31, 14, 5, 0, 0, [1, 1, 0, 1]>, <81, 18, 32, 14, 5, 0, 0, [1, 1, 0, 1]>, <82, 19, 33, 14, 5, 0, 0, [1, 1, 0, 1]>, <83, 20, 34, 14, 5, 0, 0, [1, 1, 0, 1]>, <84, 21, 35, 14, 5, 0, 0, [1, 1, 0, 1]>, <85, 5, 15, 10, 6, 0, 0, [1, 0, 1, 1]>, <86, 6, 16, 10, 6, 0, 0, [1, 0, 1, 1]>, <87, 14, 24, 10, 6, 0, 0, [1, 0, 1, 1]>, <88, 15, 25, 10, 6, 0, 0, [1, 0, 1, 1]>, <89, 21, 31, 10, 6, 0, 0, [1, 0, 1, 1]>, <90, 22, 32, 10, 6, 0, 0, [1, 0, 1, 1]>, <91, 23, 33, 10, 6, 0, 0, [1, 0, 1, 1]>, <92, 24, 34, 10, 6, 0, 0, [1, 0, 1, 1]>, <93, 3, 17, 14, 7, 0, 0, [1, 1, 1, 0]>, <94, 4, 18, 14, 7, 0, 0, [1, 1, 1, 0]>, <95, 5, 19, 14, 7, 0, 0, [1, 1, 1, 0]>, <96, 6, 20, 14, 7, 0, 0, [1, 1, 1, 0]>, <97, 12, 26, 14, 7, 0, 0, [1, 1, 1, 0]>, <98, 13, 27, 14, 7, 0, 0, [1, 1, 1, 0]>, <99, 14, 28, 14, 7, 0, 0, [1, 1, 1, 0]>, <100, 15, 29, 14, 7, 0, 0, [1, 1, 1, 0]>, <101, 17, 31, 14, 7, 0, 0, [1, 1, 1, 0]>, <102, 18, 32, 14, 7, 0, 0, [1, 1, 1, 0]>, <103, 19, 33, 14, 7, 0, 0, [1, 1, 1, 0]>, <104, 20, 34, 14, 7, 0, 0, [1, 1, 1, 0]>, <105, 21, 35, 14, 7, 0, 0, [1, 1, 1, 0]>};
